headline_hunt/bets/programmatic_sat_propagator/results/phase2b_smoke_2026-04-25/expose_with_propagator.log
Loaded varmap: 56 (reg,round) entries, total_vars=12816
Conflict limit: 50000
Cascade-zero targets: 352 SAT vars observed, 0 bits already const-false
Propagator connected with 352 observed cascade-zero vars
Loaded 53698 clauses from headline_hunt/bets/programmatic_sat_propagator/results/phase2b_smoke_2026-04-25/aux_expose_sr61_n32_bit10_test.cnf
Solving with cascade propagator...

Result: 0 (10=SAT, 20=UNSAT, 0=UNKNOWN)
Propagator stats:
  notify_assignment events: 355
  cb_propagate fires:       352
  decisions:                373061
  backtracks:               58716
s UNKNOWN
